************************************************************************
file with basedata            : 
initial value random generator: 
************************************************************************
projects                      :  1
jobs (incl. supersource/sink ):  90
horizon                       :  440
RESOURCES
  - renewable                 :  4   R
  - nonrenewable              :  0   N
  - doubly constrained        :  0   D
************************************************************************
PROJECT INFORMATION:
pronr.  #jobs rel.date duedate tardcost  MPM-Time
	1     88      0       10        1       10
************************************************************************
PRECEDENCE RELATIONS:
jobnr.    #modes  #successors   successors
   1        1         17           2   3   4   5   6   7   8   9  10  11  12  13  14  15  16  17  18 
   2        1          1          19 
   3        1          1          20 
   4        1          1          21 
   5        1          1          22 
   6        1          1          23 
   7        1          1          24 
   8        1          1          25 
   9        1          1          26 
  10        1          1          27 
  11        1          1          28 
  12        1          1          29 
  13        1          1          30 
  14        1          1          31 
  15        1          3          34  35  36 
  16        1          4          39  40  41  42 
  17        1          5          59  60  61  62  63 
  18        1          4          82  83  84  85 
  19        1          3          34  35  36 
  20        1          3          34  35  36 
  21        1          7          46  47  48  49  50  51  52 
  22        1          7          46  47  48  49  50  51  52 
  23        1          7          46  47  48  49  50  51  52 
  24        1          7          46  47  48  49  50  51  52 
  25        1          7          46  47  48  49  50  51  52 
  26        1          7          69  70  71  72  73  74  75 
  27        1          7          69  70  71  72  73  74  75 
  28        1          7          69  70  71  72  73  74  75 
  29        1          5          59  60  61  62  63 
  30        1          5          59  60  61  62  63 
  31        1          2          32  33 
  32        1          3          34  35  36 
  33        1          1          90 
  34        1          1          37 
  35        1          1          38 
  36        1          1          90 
  37        1          4          39  40  41  42 
  38        1          4          39  40  41  42 
  39        1          1          43 
  40        1          1          44 
  41        1          1          45 
  42        1          1          90 
  43        1          7          46  47  48  49  50  51  52 
  44        1          7          46  47  48  49  50  51  52 
  45        1          7          46  47  48  49  50  51  52 
  46        1          1          53 
  47        1          1          54 
  48        1          1          55 
  49        1          1          56 
  50        1          1          57 
  51        1          1          58 
  52        1          1          90 
  53        1          5          59  60  61  62  63 
  54        1          5          59  60  61  62  63 
  55        1          5          59  60  61  62  63 
  56        1          7          69  70  71  72  73  74  75 
  57        1          7          69  70  71  72  73  74  75 
  58        1          4          82  83  84  85 
  59        1          1          64 
  60        1          1          65 
  61        1          1          66 
  62        1          1          67 
  63        1          1          68 
  64        1          7          69  70  71  72  73  74  75 
  65        1          4          82  83  84  85 
  66        1          7          69  70  71  72  73  74  75 
  67        1          4          82  83  84  85 
  68        1          1          90 
  69        1          1          76 
  70        1          1          77 
  71        1          1          78 
  72        1          1          79 
  73        1          1          80 
  74        1          1          81 
  75        1          4          82  83  84  85 
  76        1          4          82  83  84  85 
  77        1          4          82  83  84  85 
  78        1          1          90 
  79        1          1          90 
  80        1          1          90 
  81        1          1          90 
  82        1          1          86 
  83        1          1          87 
  84        1          1          88 
  85        1          1          89 
  86        1          1          90 
  87        1          1          90 
  88        1          1          90 
  89        1          1          90 
  90        1          0         
************************************************************************
REQUESTS/DURATIONS:
jobnr. mode duration  R 1  R 2  R 3  R 4
------------------------------------------------------------------------
  1      1     0       0    0    0    0
  2      1     3       6    0    9    9
  3      1     2       7    0    0    0
  4      1     1       6   10    9    8
  5      1     1       8    8    8    0
  6      1     2       0    0    9    0
  7      1     7       0    7    0    0
  8      1     9       0    6   10    0
  9      1    10       0    9    0    0
 10      1    10       0    1    7    0
 11      1     8       8    3    0    9
 12      1     2       6    1    9    0
 13      1     5       0    0    0    0
 14      1     6       0    0    0    3
 15      1     9       0    7    0    0
 16      1    10       0    0    4    0
 17      1     9       2    3    0    7
 18      1     3      10   10    0    8
 19      1     2       0    7    4    3
 20      1    10       0    0    9    1
 21      1     2       5    0    4    9
 22      1     1       3    4    0    0
 23      1     2       0   10    6    1
 24      1     6       5    1    5    0
 25      1     7       0    0    0    2
 26      1     9       9    0    5    1
 27      1     1       6    6    8    1
 28      1    10       3    0    0    0
 29      1     6       1    9    0    0
 30      1     4       3    8    6    7
 31      1     8       2    0   10    2
 32      1     2       0    5    0    3
 33      1     2       0    0    0    0
 34      1     8       7    8    8    0
 35      1     1       3    0    5   10
 36      1     7       0    0    1    7
 37      1     9      10    4   10    4
 38      1     5       3    1    5   10
 39      1     3       0    0    3    0
 40      1     2       0    9    0    0
 41      1     7       0    9    8    8
 42      1     9       0    0    7    0
 43      1    10      10    2    7    1
 44      1     4       0    9    6    0
 45      1     4      10    7    0   10
 46      1     1       5    0   10    7
 47      1     2       0    7    0    0
 48      1     2       0    4    9   10
 49      1     7       3    0    0    0
 50      1     9       0    0    8    2
 51      1     6       6    0    9    8
 52      1    10       9    0    0    6
 53      1     2       2    8    0    5
 54      1     2       0    6    0    5
 55      1     9       2    0    3    6
 56      1     4       0    7    0    0
 57      1     4       8    0    0    0
 58      1     6       0    8   10    5
 59      1     8       0    0    0    0
 60      1     1       0    0    3    0
 61      1    10       2    0    0    0
 62      1    10       3    0    8    0
 63      1     2       0    0    0    0
 64      1     5       0    0    0    1
 65      1     3       0    0    9    6
 66      1     1       5   10    0    8
 67      1    10       2    0   10   10
 68      1     1       8    8    0    7
 69      1     2       0    0    0    4
 70      1     1       0    0    1    0
 71      1     6       1    0    0   10
 72      1     3       0    0    0    4
 73      1     1       0    2    4    0
 74      1     7       0    0    3    1
 75      1     9       0    0    6    5
 76      1     3       0    9    0    0
 77      1     1       9    0    0    7
 78      1     2       0    3   10    0
 79      1     7       8    5    0    2
 80      1     7       0    0    9    1
 81      1     7       1    2    0    0
 82      1     6       0    1    0    0
 83      1     5       0    1    0    8
 84      1     1       4    0    6    0
 85      1     6       0    2    0    0
 86      1    10       0    0   10    7
 87      1     9       3    4    0    0
 88      1     8       0    1    9    1
 89      1     9       0    6    0    0
 90      1     0       0    0    0    0
************************************************************************
RESOURCEAVAILABILITIES:
  R 1  R 2  R 3  R 4
   16   11   13   19
************************************************************************
